Version identifier: 22.1.0.0 | 2022-03-09 | 1a383f8ce
CPXPARAM_Read_DataCheck                          1
1 of 1 MIP starts provided solutions.
MIP start 'm1' defined initial solution with objective 43.0000.
Tried aggregator 4 times.
MIP Presolve eliminated 32630 rows and 4330 columns.
MIP Presolve modified 520 coefficients.
Aggregator did 29343 substitutions.
Reduced MIP has 4418 rows, 30053 columns, and 64551 nonzeros.
Reduced MIP has 30027 binaries, 26 generals, 0 SOSs, and 0 indicators.
Presolve time = 0.29 sec. (325.22 ticks)
Tried aggregator 1 time.
Detecting symmetries...
Reduced MIP has 4418 rows, 30053 columns, and 64551 nonzeros.
Reduced MIP has 30027 binaries, 26 generals, 0 SOSs, and 0 indicators.
Presolve time = 0.05 sec. (45.71 ticks)
Probing fixed 42 vars, tightened 0 bounds.
Probing time = 0.09 sec. (15.62 ticks)
Clique table members: 61100.
MIP emphasis: balance optimality and feasibility.
MIP search method: dynamic search.
Parallel mode: deterministic, using up to 8 threads.
Root relaxation solution time = 0.30 sec. (229.74 ticks)

        Nodes                                         Cuts/
   Node  Left     Objective  IInf  Best Integer    Best Bound    ItCnt     Gap

*     0+    0                           43.0000        0.0000           100.00%
      0     0       26.4207  3465       43.0000       26.4207     4016   38.56%
      0     0        cutoff             43.0000                   4032    0.00%
Elapsed time = 2.20 sec. (1471.10 ticks, tree = 0.01 MB, solutions = 1)

Zero-half cuts applied:  21
Gomory fractional cuts applied:  17

Root node processing (before b&c):
  Real time             =    2.20 sec. (1473.24 ticks)
Parallel b&c, 8 threads:
  Real time             =    0.00 sec. (0.00 ticks)
  Sync time (average)   =    0.00 sec.
  Wait time (average)   =    0.00 sec.
                          ------------
Total (root+branch&cut) =    2.20 sec. (1473.24 ticks)
